GLPSOL: GLPK LP/MIP Solver, v4.65
Parameter(s) specified in the command line:
 -m production-orders.mod -d production-orders-B.dat --log production-orders-B.log
Reading model section from production-orders.mod...
68 lines were read
Reading data section from production-orders-B.dat...
50 lines were read
Checking (line 6)...
Generating Material_Balance_Production...
Generating Material_Balance_Orders...
Generating Material_Balance_Total_Raws_1...
Generating Material_Balance_Total_Raws_2...
Generating Material_Balance_Total_Products_1...
Generating Material_Balance_Total_Products_2...
Generating Total_Costs_Calc...
Generating Total_Revenue_Calc...
Generating Profit_Calc...
Generating Profit...
Model has been successfully generated
GLPK Simplex Optimizer, v4.65
32 rows, 40 columns, 92 non-zeros
Preprocessing...
14 rows, 14 columns, 44 non-zeros
Scaling...
 A: min|aij| =  1.300e-02  max|aij| =  5.400e+03  ratio =  4.154e+05
GM: min|aij| =  3.996e-01  max|aij| =  2.502e+00  ratio =  6.262e+00
EQ: min|aij| =  1.597e-01  max|aij| =  1.000e+00  ratio =  6.262e+00
Constructing initial basis...
Size of triangular part is 14
      0: obj =  -1.600000000e+03 inf =   1.250e+04 (2)
      4: obj =  -4.700000000e+02 inf =   0.000e+00 (0)
*     9: obj =   1.965625000e+03 inf =   0.000e+00 (0)
OPTIMAL LP SOLUTION FOUND
Time used:   0.0 secs
Memory used: 0.2 Mb (167582 bytes)
Total Costs: 30495
Total Revenue: 32460.6
Profit: 1965.63
Volume of recipe MakeP1: 0
Volume of recipe MakeP2: 6.25
Volume of recipe MakeP3: 0
Volume of recipe Comp1: 86.875
Volume of recipe Comp2: 10
Raw materials (orders + market -> production + leftover):
Consumption of raw A: 0 + 21672.5 -> 21672.5 + 0 (total: 21672.5)
Consumption of raw B: 0 + 21000 -> 21000 + 0 (total: 21000)
Consumption of raw C: 0 + 442500 -> 442500 + 0 (total: 442500)
Consumption of raw D: 0 + 200 -> 200 + 0 (total: 200)
Products (production -> orders + market):
Production of product P1: 86.875 -> 0 + 86.875 (total: 86.875)
Production of product P2: 103.125 -> 0 + 103.125 (total: 103.125)
Production of product P3: 10 -> 0 + 10 (total: 10)
Model has been successfully processed
